
Gurobi 11.0.1 (win64) logging started Mon Apr  1 12:50:53 2024

Set parameter LogFile to value "C:\Projetos\Job_Rotation_Algorithms\Outputs\GurobiLogs\gurobi_log-output-75_wee-c25-CostaMirallesModel-NoExtraConstraint-2.log"
Gurobi Optimizer version 11.0.1 build v11.0.1rc0 (win64 - Windows 10.0 (19045.2))

CPU model: 11th Gen Intel(R) Core(TM) i7-1165G7 @ 2.80GHz, instruction set [SSE2|AVX|AVX2|AVX512]
Thread count: 4 physical cores, 8 logical processors, using up to 1 threads


Gurobi 11.0.1 (win64) logging started Mon Apr  1 21:38:38 2024

Set parameter LogFile to value "C:\Projetos\Job_Rotation_Algorithms\Outputs\GurobiLogs\gurobi_log-output-75_wee-c25-CostaMirallesModel-NoExtraConstraint-2.log"
Gurobi Optimizer version 11.0.1 build v11.0.1rc0 (win64 - Windows 10.0 (19045.2))

CPU model: 11th Gen Intel(R) Core(TM) i7-1165G7 @ 2.80GHz, instruction set [SSE2|AVX|AVX2|AVX512]
Thread count: 4 physical cores, 8 logical processors, using up to 1 threads


Gurobi 11.0.1 (win64) logging started Thu Apr  4 23:36:00 2024

Set parameter LogFile to value "C:\Projetos\Job_Rotation_Algorithms\Outputs\GurobiLogs\gurobi_log-output-75_wee-c25-CostaMirallesModel-NoExtraConstraint-2.log"
Gurobi Optimizer version 11.0.1 build v11.0.1rc0 (win64 - Windows 10.0 (19045.2))

CPU model: 11th Gen Intel(R) Core(TM) i7-1165G7 @ 2.80GHz, instruction set [SSE2|AVX|AVX2|AVX512]
Thread count: 4 physical cores, 8 logical processors, using up to 1 threads


Gurobi 11.0.1 (win64) logging started Sat Apr  6 13:06:28 2024

Set parameter LogFile to value "C:\Projetos\Job_Rotation_Algorithms\Outputs\GurobiLogs\gurobi_log-output-75_wee-c25-CostaMirallesModel-NoExtraConstraint-2.log"
Gurobi Optimizer version 11.0.1 build v11.0.1rc0 (win64 - Windows 10.0 (19045.2))

CPU model: 11th Gen Intel(R) Core(TM) i7-1165G7 @ 2.80GHz, instruction set [SSE2|AVX|AVX2|AVX512]
Thread count: 4 physical cores, 8 logical processors, using up to 1 threads


Gurobi 11.0.1 (win64) logging started Sun Apr  7 02:38:24 2024

Set parameter LogFile to value "C:\Projetos\Job_Rotation_Algorithms\Outputs\GurobiLogs\gurobi_log-output-75_wee-c25-CostaMirallesModel-NoExtraConstraint-2.log"
Gurobi Optimizer version 11.0.1 build v11.0.1rc0 (win64 - Windows 10.0 (19045.2))

CPU model: 11th Gen Intel(R) Core(TM) i7-1165G7 @ 2.80GHz, instruction set [SSE2|AVX|AVX2|AVX512]
Thread count: 4 physical cores, 8 logical processors, using up to 1 threads


Gurobi 11.0.1 (win64) logging started Sun Apr  7 09:51:22 2024

Set parameter LogFile to value "C:\Projetos\Job_Rotation_Algorithms\Outputs\GurobiLogs\gurobi_log-output-75_wee-c25-CostaMirallesModel-NoExtraConstraint-2.log"
Gurobi Optimizer version 11.0.1 build v11.0.1rc0 (win64 - Windows 10.0 (19045.2))

CPU model: 11th Gen Intel(R) Core(TM) i7-1165G7 @ 2.80GHz, instruction set [SSE2|AVX|AVX2|AVX512]
Thread count: 4 physical cores, 8 logical processors, using up to 1 threads


Gurobi 11.0.1 (win64) logging started Wed Apr 10 17:40:19 2024

Set parameter LogFile to value "C:\Projetos\Job_Rotation_Algorithms\Outputs\GurobiLogs\gurobi_log-output-75_wee-c25-CostaMirallesModel-NoExtraConstraint-2.log"
Gurobi Optimizer version 11.0.1 build v11.0.1rc0 (win64 - Windows 10.0 (19045.2))

CPU model: 11th Gen Intel(R) Core(TM) i7-1165G7 @ 2.80GHz, instruction set [SSE2|AVX|AVX2|AVX512]
Thread count: 4 physical cores, 8 logical processors, using up to 1 threads


Gurobi 11.0.1 (win64) logging started Thu Apr 11 01:45:03 2024

Set parameter LogFile to value "C:\Projetos\Job_Rotation_Algorithms\Outputs\GurobiLogs\gurobi_log-output-75_wee-c25-CostaMirallesModel-NoExtraConstraint-2.log"
Gurobi Optimizer version 11.0.1 build v11.0.1rc0 (win64 - Windows 10.0 (19045.2))

CPU model: 11th Gen Intel(R) Core(TM) i7-1165G7 @ 2.80GHz, instruction set [SSE2|AVX|AVX2|AVX512]
Thread count: 4 physical cores, 8 logical processors, using up to 1 threads


Gurobi 11.0.1 (win64) logging started Sun Apr 21 03:02:02 2024

Set parameter LogFile to value "C:\Projetos\Job_Rotation_Algorithms\Outputs\GurobiLogs\gurobi_log-output-75_wee-c25-CostaMirallesModel-NoExtraConstraint-2.log"
Gurobi Optimizer version 11.0.1 build v11.0.1rc0 (win64 - Windows 10.0 (19045.2))

CPU model: 11th Gen Intel(R) Core(TM) i7-1165G7 @ 2.80GHz, instruction set [SSE2|AVX|AVX2|AVX512]
Thread count: 4 physical cores, 8 logical processors, using up to 1 threads


Gurobi 11.0.1 (win64) logging started Fri Apr 26 07:43:58 2024

Set parameter LogFile to value "C:\Projetos\Job_Rotation_Algorithms\Outputs\GurobiLogs\gurobi_log-output-75_wee-c25-CostaMirallesModel-NoExtraConstraint-2.log"
Gurobi Optimizer version 11.0.1 build v11.0.1rc0 (win64 - Windows 10.0 (19045.2))

CPU model: 11th Gen Intel(R) Core(TM) i7-1165G7 @ 2.80GHz, instruction set [SSE2|AVX|AVX2|AVX512]
Thread count: 4 physical cores, 8 logical processors, using up to 1 threads


Gurobi 11.0.1 (win64) logging started Sat Apr 27 04:35:06 2024

Set parameter LogFile to value "C:\Projetos\Job_Rotation_Algorithms\Outputs\GurobiLogs\gurobi_log-output-75_wee-c25-CostaMirallesModel-NoExtraConstraint-2.log"
Gurobi Optimizer version 11.0.1 build v11.0.1rc0 (win64 - Windows 10.0 (19045.2))

CPU model: 11th Gen Intel(R) Core(TM) i7-1165G7 @ 2.80GHz, instruction set [SSE2|AVX|AVX2|AVX512]
Thread count: 4 physical cores, 8 logical processors, using up to 1 threads


Gurobi 11.0.1 (win64) logging started Sat Apr 27 14:53:14 2024

Set parameter LogFile to value "C:\Projetos\Job_Rotation_Algorithms\Outputs\GurobiLogs\gurobi_log-output-75_wee-c25-CostaMirallesModel-NoExtraConstraint-2.log"
Gurobi Optimizer version 11.0.1 build v11.0.1rc0 (win64 - Windows 10.0 (19045.2))

CPU model: 11th Gen Intel(R) Core(TM) i7-1165G7 @ 2.80GHz, instruction set [SSE2|AVX|AVX2|AVX512]
Thread count: 4 physical cores, 8 logical processors, using up to 1 threads


Gurobi 11.0.1 (win64) logging started Sun May  5 17:20:19 2024

Set parameter LogFile to value "C:\Projetos\Job_Rotation_Algorithms\Outputs\GurobiLogs\gurobi_log-output-75_wee-c25-CostaMirallesModel-NoExtraConstraint-2.log"
Gurobi Optimizer version 11.0.1 build v11.0.1rc0 (win64 - Windows 10.0 (19045.2))

CPU model: 11th Gen Intel(R) Core(TM) i7-1165G7 @ 2.80GHz, instruction set [SSE2|AVX|AVX2|AVX512]
Thread count: 4 physical cores, 8 logical processors, using up to 1 threads

WLS license 901038 - registered to Bitka Analytics
Optimize a model with 6099 rows, 49786 columns and 1243860 nonzeros
Model fingerprint: 0x6491c453
Variable types: 2 continuous, 49784 integer (49784 binary)
Coefficient statistics:
  Matrix range     [1e+00, 8e+01]
  Objective range  [1e+00, 1e+00]
  Bounds range     [1e+00, 5e+01]
  RHS range        [1e+00, 5e+01]
Presolve added 1873 rows and 812 columns
Presolve time: 4.85s
Presolved: 7972 rows, 50598 columns, 394298 nonzeros
Variable types: 0 continuous, 50598 integer (49193 binary)

Root simplex log...

Iteration    Objective       Primal Inf.    Dual Inf.      Time
       0    1.2510000e+03   1.604375e+03   0.000000e+00      7s
    8611    1.5000000e+02   0.000000e+00   0.000000e+00      9s

Root relaxation: objective 1.500000e+02, 8611 iterations, 1.70 seconds (2.14 work units)
Total elapsed time = 10.09s (DegenMoves)

    Nodes    |    Current Node    |     Objective Bounds      |     Work
 Expl Unexpl |  Obj  Depth IntInf | Incumbent    BestBd   Gap | It/Node Time

     0     0  150.00000    0  178          -  150.00000      -     -   10s
     0     0  150.00000    0  182          -  150.00000      -     -   10s
     0     0  150.00000    0  182          -  150.00000      -     -   14s
     0     0  150.00000    0  207          -  150.00000      -     -   30s
     0     0  150.00000    0 1320          -  150.00000      -     -   35s
     0     0  150.00000    0 1160          -  150.00000      -     -   35s
     0     0  150.00000    0 1144          -  150.00000      -     -   35s
     0     0  150.00000    0 1147          -  150.00000      -     -   36s
     0     0  150.00000    0  182          -  150.00000      -     -   40s
     0     0  150.00000    0  183          -  150.00000      -     -   40s
     0     0  150.00000    0  205          -  150.00000      -     -   41s
     0     0  150.00000    0  218          -  150.00000      -     -   44s
     0     0  150.00000    0  609          -  150.00000      -     -   45s
     0     0  150.00000    0  245          -  150.00000      -     -   49s
     0     0  150.00000    0  247          -  150.00000      -     -   49s
     0     0  150.00000    0  251          -  150.00000      -     -   49s
     0     0  150.00000    0  276          -  150.00000      -     -   49s
     0     0  150.00000    0  966          -  150.00000      -     -   50s
     0     0  150.00000    0  951          -  150.00000      -     -   50s
     0     0  150.00000    0  467          -  150.00000      -     -   51s
     0     0  150.00000    0  290          -  150.00000      -     -   55s
     0     0  150.00000    0  288          -  150.00000      -     -   56s
     0     0  150.00000    0  245          -  150.00000      -     -   67s
     0     0  150.00000    0  248          -  150.00000      -     -   67s
     0     0  150.00000    0  854          -  150.00000      -     -   69s
     0     0  150.00000    0  827          -  150.00000      -     -   69s
     0     0  150.00000    0  709          -  150.00000      -     -   69s
     0     0  150.00000    0  270          -  150.00000      -     -   74s
     0     0  150.00000    0  266          -  150.00000      -     -   74s
     0     0  150.00000    0  372          -  150.00000      -     -   74s
     0     0  150.00000    0  199          -  150.00000      -     -   77s
     0     0  150.00000    0  540          -  150.00000      -     -   77s
     0     0  150.00000    0  235          -  150.00000      -     -   80s
     0     0  150.00000    0  285          -  150.00000      -     -   80s
     0     0  150.00000    0  274          -  150.00000      -     -   83s
     0     0  150.00000    0  257          -  150.00000      -     -   83s
     0     2  150.00000    0  257          -  150.00000      -     -   90s
    97    99  150.00000   63  354          -  150.00000      -   103   95s
   183   174  150.00000  117  329          -  150.00000      -   139  100s
   239   212  150.00000   28  548          -  150.00000      -   181  105s
   324   297  150.00000   80  390          -  150.00000      -   178  110s
   396   360  150.00000  123  341          -  150.00000      -   196  115s
   510   425  150.00000  106 1218          -  150.00000      -   185  120s
   565   478  150.00000   29  182          -  150.00000      -   189  140s
   567   479  150.00000  102  217          -  150.00000      -   188  148s
   568   480  150.00000   32 1099          -  150.00000      -   188  151s
   570   481  150.00000   95  230          -  150.00000      -   187  160s
   572   483  150.00000   25  228          -  150.00000      -   187  168s
   573   483  150.00000   33  748          -  150.00000      -   186  170s
   574   484  150.00000  176  259          -  150.00000      -   186  177s
   576   485  150.00000  114  252          -  150.00000      -   185  186s
   578   487  150.00000   79  229          -  150.00000      -   185  193s
   580   488  150.00000   50  215          -  150.00000      -   184  201s
   582   491  150.00000   15  481          -  150.00000      -   929  205s
   584   493  150.00000   16  791          -  150.00000      -   927  229s
   586   494  150.00000   17  530          -  150.00000      -   924  230s
   590   497  150.00000   19  511          -  150.00000      -   919  235s
   598   502  150.00000   23  557          -  150.00000      -   909  241s
   617   515  150.00000   33  216          -  150.00000      -   901  245s
   691   564  150.00000   70  524          -  150.00000      -   817  250s
   735   593  150.00000   92  381          -  150.00000      -   784  255s
   753   605  150.00000  101  255          -  150.00000      -   772  260s
   785   624  150.00000  117  313          -  150.00000      -   750  265s
   842   626  150.00000   32  294          -  150.00000      -   703  270s
   880   650  150.00000   51  349          -  150.00000      -   687  275s
   933   683  150.00000   78  261          -  150.00000      -   663  280s
   989   716  150.00000  106  869          -  150.00000      -   637  285s
  1040   748  150.00000  132  246          -  150.00000      -   621  290s
  1101   779  150.00000  166  376          -  150.00000      -   603  295s
  1175   814  150.00000  208  305          -  150.00000      -   575  300s
  1217   821 infeasible  233               -  150.00000      -   560  305s
  1269   837  150.00000  181  575          -  150.00000      -   543  310s
  1277   835 infeasible  184               -  150.00000      -   554  315s
  1284   835  150.00000  183  467          -  150.00000      -   553  320s
  1349   858  150.00000  176  160          -  150.00000      -   533  325s
  1420   894  150.00000  212  176          -  150.00000      -   514  330s
  1478   916  150.00000  196   96          -  150.00000      -   500  335s
  1536   931 infeasible  227               -  150.00000      -   486  340s
  1638   948  150.00000  199  150          -  150.00000      -   460  345s
  1692   946 infeasible  221               -  150.00000      -   450  350s
  1834   980  150.00000  232  201          -  150.00000      -   419  355s
  1940  1019  150.00000  235  273          -  150.00000      -   401  360s
  2015  1029  145.00000  214  101          -  150.00000      -   390  365s
  2095  1076  149.00000  216  178          -  150.00000      -   379  370s
  2157  1111  150.00000  202  231          -  150.00000      -   371  375s
  2244  1173  150.00000  257  131          -  150.00000      -   360  380s
  2340  1236 infeasible  246               -  150.00000      -   349  385s
  2431  1287 infeasible  235               -  150.00000      -   339  390s
  2547  1355 infeasible  260               -  150.00000      -   327  395s
  2746  1453  150.00000  259  181          -  150.00000      -   306  400s
  2906  1557  150.00000  227  173          -  150.00000      -   292  405s
  3072  1651 infeasible  239               -  150.00000      -   280  410s
  3164  1693 infeasible  239               -  150.00000      -   275  415s
  3222  1715 infeasible  257               -  150.00000      -   273  420s
  3382  1827  150.00000  240  150          -  150.00000      -   262  425s
  3491  1874  149.13492  252  328          -  150.00000      -   256  430s
  3626  1934  150.00000  222  163          -  150.00000      -   249  435s
  3775  1997  150.00000  237  206          -  150.00000      -   242  440s
  3993  2106  148.00000  247  188          -  150.00000      -   232  445s
  4122  2126 infeasible  249               -  150.00000      -   227  450s
  4221  2148  149.00000  239  248          -  150.00000      -   223  455s
  4344  2182 infeasible  248               -  150.00000      -   219  460s
  4485  2243  146.00000  239  308          -  150.00000      -   214  465s
  4659  2311  147.69770  225  249          -  150.00000      -   209  470s
  4798  2349  150.00000  248  292          -  150.00000      -   205  475s
  4932  2417  150.00000  231  174          -  150.00000      -   202  480s
  5099  2478  150.00000  219  131          -  150.00000      -   197  485s
  5101  2480  150.00000  221  126          -  150.00000      -   197  490s
  5214  2509  150.00000  215  260          -  150.00000      -   195  495s
  5317  2523 infeasible  234               -  150.00000      -   193  500s
  5415  2525  150.00000  236  443          -  150.00000      -   191  505s
  5549  2580 infeasible  232               -  150.00000      -   189  510s
  5706  2650 infeasible  245               -  150.00000      -   186  515s
  5880  2728 infeasible  209               -  150.00000      -   182  520s
  6031  2814 infeasible  242               -  150.00000      -   179  525s
  6146  2866  148.71801  256  446          -  150.00000      -   177  530s
  6292  2895 infeasible  249               -  150.00000      -   175  535s
  6437  2948  150.00000  224  154          -  150.00000      -   173  540s
  6643  3044 infeasible  263               -  150.00000      -   170  545s
  6804  3094  150.00000  233  178          -  150.00000      -   168  550s
  6951  3129 infeasible  251               -  150.00000      -   166  555s
  7112  3190 infeasible  218               -  150.00000      -   164  560s
  7327  3263  141.89185  226  160          -  150.00000      -   161  565s
  7429  3313  150.00000  222  239          -  150.00000      -   161  570s
  7547  3308  150.00000  223  342          -  150.00000      -   160  575s
  7664  3348  136.07037  227   61          -  150.00000      -   159  580s
  7871  3416  150.00000  204  315          -  150.00000      -   156  585s
  7993  3456  148.79735  223  491          -  150.00000      -   156  590s
  8154  3516 infeasible  238               -  150.00000      -   154  595s
  8338  3604  149.00000  248  314          -  150.00000      -   152  600s
  8464  3645 infeasible  242               -  150.00000      -   152  605s
  8581  3666  148.00000  232  209          -  150.00000      -   151  610s
  8808  3765 infeasible  252               -  150.00000      -   149  615s
  8985  3818 infeasible  228               -  150.00000      -   148  620s
  9179  3876 infeasible  237               -  150.00000      -   146  625s
  9318  3905 infeasible  233               -  150.00000      -   145  630s
  9431  3917  149.00000  226  144          -  150.00000      -   145  635s
  9586  3975 infeasible  222               -  150.00000      -   144  640s
  9735  4011 infeasible  233               -  150.00000      -   143  645s
  9890  4071 infeasible  229               -  150.00000      -   142  650s
 10044  4108 infeasible  222               -  150.00000      -   141  655s
 10184  4120 infeasible  229               -  150.00000      -   140  660s
 10202  4126  149.30769  230  167          -  150.00000      -   140  784s
 10233  4137  150.00000  203  177          -  150.00000      -   140  785s
 10383  4193  150.00000  205  196          -  150.00000      -   139  790s
 10545  4224  150.00000  219  157          -  150.00000      -   138  795s
 10734  4287  150.00000  224  196          -  150.00000      -   137  800s
 10873  4298 infeasible  235               -  150.00000      -   136  805s
 11019  4319 infeasible  240               -  150.00000      -   136  810s
 11173  4372 infeasible  224               -  150.00000      -   135  815s
 11247  4400  150.00000  233  278          -  150.00000      -   135  825s
 11258  4403  150.00000  230  200          -  150.00000      -   135  830s
 11345  4430 infeasible  243               -  150.00000      -   135  835s
 11498  4495  150.00000  224  125          -  150.00000      -   134  840s
 11649  4560 infeasible  276               -  150.00000      -   133  845s
 11816  4617 infeasible  257               -  150.00000      -   132  850s
 11961  4660  149.00000  238  201          -  150.00000      -   132  855s
 12066  4688 infeasible  244               -  150.00000      -   131  860s
 12199  4707  150.00000  243  102          -  150.00000      -   131  865s
 12326  4734  150.00000  234  317          -  150.00000      -   131  870s
 12460  4761 infeasible  246               -  150.00000      -   131  875s
 12582  4773 infeasible  242               -  150.00000      -   130  880s
 12741  4817 infeasible  236               -  150.00000      -   130  885s
 12885  4860  149.41176  232  252          -  150.00000      -   129  890s
 12973  4902 infeasible  246               -  150.00000      -   129  895s
 13067  4945  150.00000  222  235          -  150.00000      -   129  900s
 13183  4979  147.00000  230  203          -  150.00000      -   129  905s
 13301  5003  150.00000  225  260          -  150.00000      -   129  910s
 13421  5044  150.00000  223  255          -  150.00000      -   129  915s
 13613  5107 infeasible  237               -  150.00000      -   128  920s
 13735  5139  149.00000  225  249          -  150.00000      -   128  925s
 13891  5178  150.00000  221  270          -  150.00000      -   127  930s
 13998  5226  150.00000  236  158          -  150.00000      -   127  935s
 14156  5268  150.00000  208  215          -  150.00000      -   127  940s
 14298  5301 infeasible  232               -  150.00000      -   126  945s
 14425  5336 infeasible  221               -  150.00000      -   126  950s
 14566  5378  150.00000  222  332          -  150.00000      -   126  955s
 14691  5406 infeasible  213               -  150.00000      -   126  960s
 14801  5444 infeasible  225               -  150.00000      -   126  965s
 14983  5454 infeasible  240               -  150.00000      -   125  970s
 15075  5480  149.00000  239  242          -  150.00000      -   125  975s
 15183  5504  150.00000  196   98          -  150.00000      -   125  980s
 15303  5579  150.00000  229  249          -  150.00000      -   125  990s
 15432  5638  149.85714  219  516          -  150.00000      -   125  995s
 15500  5667  150.00000  224  260          -  150.00000      -   125 1000s
 15581  5692 infeasible  239               -  150.00000      -   126 1005s
 15649  5729 infeasible  252               -  150.00000      -   126 1010s
 15722  5740 infeasible  239               -  150.00000      -   126 1015s
 15820  5772 infeasible  233               -  150.00000      -   126 1020s
 15939  5806  150.00000  205  185          -  150.00000      -   127 1025s
 16075  5878  145.60260  230  405          -  150.00000      -   126 1030s
 16146  5899  148.36213  246  481          -  150.00000      -   127 1042s
 16153  5898  150.00000  220  349          -  150.00000      -   127 1045s
 16162  5903  150.00000  222  232          -  150.00000      -   127 1050s
 16247  5936  150.00000  210  309          -  150.00000      -   127 1055s
 16342  5949 infeasible  219               -  150.00000      -   127 1060s
 16451  5974 infeasible  255               -  150.00000      -   127 1065s
 16536  5992 infeasible  248               -  150.00000      -   127 1070s
 16679  6046  150.00000  233  132          -  150.00000      -   127 1075s
 16817  6089  148.36217  225  281          -  150.00000      -   127 1080s
 16935  6139  150.00000  224  320          -  150.00000      -   128 1085s
 17055  6206  150.00000  217  361          -  150.00000      -   128 1090s
 17167  6240  150.00000  215  350          -  150.00000      -   128 1095s
 17305  6305 infeasible  236               -  150.00000      -   128 1100s
 17406  6332 infeasible  220               -  150.00000      -   128 1105s
 17539  6381  150.00000  228  373          -  150.00000      -   128 1110s
 17658  6423  148.00000  219  243          -  150.00000      -   128 1115s
 17812  6465 infeasible  224               -  150.00000      -   128 1120s
 17975  6535  149.00000  232  231          -  150.00000      -   127 1125s
 18115  6575  150.00000  222  255          -  150.00000      -   127 1130s
 18351  6626  150.00000  232  298          -  150.00000      -   127 1135s
 18491  6674 infeasible  241               -  150.00000      -   127 1140s
 18606  6731  144.12905  240  153          -  150.00000      -   127 1145s
 18819  6802  150.00000  220  263          -  150.00000      -   126 1150s
 19006  6855  150.00000  218  137          -  150.00000      -   126 1155s
 19204  6920 infeasible  248               -  150.00000      -   125 1160s
*19402  6911             236     137.0000000  150.00000  9.49%   125 1164s
H19405  6793                     142.0000000  150.00000  5.63%   125 1170s
H19431  6452                     147.0000000  150.00000  2.04%   125 1174s
 19434  6451  150.00000  219  201  147.00000  150.00000  2.04%   125 1179s
 19435  6450 infeasible  220       147.00000  150.00000  2.04%   125 1180s
 19457  6456  150.00000  227  168  147.00000  150.00000  2.04%   125 1185s
H19510  6085                     148.0000000  150.00000  1.35%   125 1189s
 19514  6085  150.00000  224  108  148.00000  150.00000  1.35%   125 1190s
H19536  5015                     149.0000000  150.00000  0.67%   125 1192s
 19538  5012  150.00000  239  182  149.00000  150.00000  0.67%   125 1205s
 19540  5013  150.00000  211  242  149.00000  150.00000  0.67%   125 1211s
 19542  5015  150.00000  244 1024  149.00000  150.00000  0.67%   125 1216s
H19542  4764                     150.0000000  150.00000  0.00%   125 1225s

Cutting planes:
  Gomory: 25
  Cover: 190
  Implied bound: 16
  Clique: 61
  MIR: 25
  StrongCG: 9
  Flow cover: 32
  GUB cover: 5
  Zero half: 16
  RLT: 1
  Relax-and-lift: 25
  BQP: 1

Explored 19542 nodes (2546931 simplex iterations) in 1225.22 seconds (900.76 work units)
Thread count was 1 (of 8 available processors)

Solution count 6: 150 149 148 ... 137

Optimal solution found (tolerance 1.00e-03)
Best objective 1.500000000000e+02, best bound 1.500000000000e+02, gap 0.0000%
